M381/lp3.txt
min:+y_1+y_2+y_3+y_4+y_5+y_6+y_7+y_8+y_9+y_10+y_11+y_12;
+x_1_1+x_1_2+x_1_3+x_1_4+x_1_5+x_1_6+x_1_7+x_1_8+x_1_9+x_1_10+x_1_11+x_1_12=1;
+x_2_1+x_2_2+x_2_3+x_2_4+x_2_5+x_2_6+x_2_7+x_2_8+x_2_9+x_2_10+x_2_11+x_2_12=1;
+x_3_1+x_3_2+x_3_3+x_3_4+x_3_5+x_3_6+x_3_7+x_3_8+x_3_9+x_3_10+x_3_11+x_3_12=1;
+x_4_1+x_4_2+x_4_3+x_4_4+x_4_5+x_4_6+x_4_7+x_4_8+x_4_9+x_4_10+x_4_11+x_4_12=1;
+x_5_1+x_5_2+x_5_3+x_5_4+x_5_5+x_5_6+x_5_7+x_5_8+x_5_9+x_5_10+x_5_11+x_5_12=1;
+x_6_1+x_6_2+x_6_3+x_6_4+x_6_5+x_6_6+x_6_7+x_6_8+x_6_9+x_6_10+x_6_11+x_6_12=1;
+x_7_1+x_7_2+x_7_3+x_7_4+x_7_5+x_7_6+x_7_7+x_7_8+x_7_9+x_7_10+x_7_11+x_7_12=1;
+x_8_1+x_8_2+x_8_3+x_8_4+x_8_5+x_8_6+x_8_7+x_8_8+x_8_9+x_8_10+x_8_11+x_8_12=1;
+x_9_1+x_9_2+x_9_3+x_9_4+x_9_5+x_9_6+x_9_7+x_9_8+x_9_9+x_9_10+x_9_11+x_9_12=1;
+x_10_1+x_10_2+x_10_3+x_10_4+x_10_5+x_10_6+x_10_7+x_10_8+x_10_9+x_10_10+x_10_11+x_10_12=1;
+x_11_1+x_11_2+x_11_3+x_11_4+x_11_5+x_11_6+x_11_7+x_11_8+x_11_9+x_11_10+x_11_11+x_11_12=1;
+x_12_1+x_12_2+x_12_3+x_12_4+x_12_5+x_12_6+x_12_7+x_12_8+x_12_9+x_12_10+x_12_11+x_12_12=1;
x_1_1 -y_1<=0;
x_1_2 -y_2<=0;
x_1_3 -y_3<=0;
x_1_4 -y_4<=0;
x_1_5 -y_5<=0;
x_1_6 -y_6<=0;
x_1_7 -y_7<=0;
x_1_8 -y_8<=0;
x_1_9 -y_9<=0;
x_1_10 -y_10<=0;
x_1_11 -y_11<=0;
x_1_12 -y_12<=0;
x_2_1 -y_1<=0;
x_2_2 -y_2<=0;
x_2_3 -y_3<=0;
x_2_4 -y_4<=0;
x_2_5 -y_5<=0;
x_2_6 -y_6<=0;
x_2_7 -y_7<=0;
x_2_8 -y_8<=0;
x_2_9 -y_9<=0;
x_2_10 -y_10<=0;
x_2_11 -y_11<=0;
x_2_12 -y_12<=0;
x_3_1 -y_1<=0;
x_3_2 -y_2<=0;
x_3_3 -y_3<=0;
x_3_4 -y_4<=0;
x_3_5 -y_5<=0;
x_3_6 -y_6<=0;
x_3_7 -y_7<=0;
x_3_8 -y_8<=0;
x_3_9 -y_9<=0;
x_3_10 -y_10<=0;
x_3_11 -y_11<=0;
x_3_12 -y_12<=0;
x_4_1 -y_1<=0;
x_4_2 -y_2<=0;
x_4_3 -y_3<=0;
x_4_4 -y_4<=0;
x_4_5 -y_5<=0;
x_4_6 -y_6<=0;
x_4_7 -y_7<=0;
x_4_8 -y_8<=0;
x_4_9 -y_9<=0;
x_4_10 -y_10<=0;
x_4_11 -y_11<=0;
x_4_12 -y_12<=0;
x_5_1 -y_1<=0;
x_5_2 -y_2<=0;
x_5_3 -y_3<=0;
x_5_4 -y_4<=0;
x_5_5 -y_5<=0;
x_5_6 -y_6<=0;
x_5_7 -y_7<=0;
x_5_8 -y_8<=0;
x_5_9 -y_9<=0;
x_5_10 -y_10<=0;
x_5_11 -y_11<=0;
x_5_12 -y_12<=0;
x_6_1 -y_1<=0;
x_6_2 -y_2<=0;
x_6_3 -y_3<=0;
x_6_4 -y_4<=0;
x_6_5 -y_5<=0;
x_6_6 -y_6<=0;
x_6_7 -y_7<=0;
x_6_8 -y_8<=0;
x_6_9 -y_9<=0;
x_6_10 -y_10<=0;
x_6_11 -y_11<=0;
x_6_12 -y_12<=0;
x_7_1 -y_1<=0;
x_7_2 -y_2<=0;
x_7_3 -y_3<=0;
x_7_4 -y_4<=0;
x_7_5 -y_5<=0;
x_7_6 -y_6<=0;
x_7_7 -y_7<=0;
x_7_8 -y_8<=0;
x_7_9 -y_9<=0;
x_7_10 -y_10<=0;
x_7_11 -y_11<=0;
x_7_12 -y_12<=0;
x_8_1 -y_1<=0;
x_8_2 -y_2<=0;
x_8_3 -y_3<=0;
x_8_4 -y_4<=0;
x_8_5 -y_5<=0;
x_8_6 -y_6<=0;
x_8_7 -y_7<=0;
x_8_8 -y_8<=0;
x_8_9 -y_9<=0;
x_8_10 -y_10<=0;
x_8_11 -y_11<=0;
x_8_12 -y_12<=0;
x_9_1 -y_1<=0;
x_9_2 -y_2<=0;
x_9_3 -y_3<=0;
x_9_4 -y_4<=0;
x_9_5 -y_5<=0;
x_9_6 -y_6<=0;
x_9_7 -y_7<=0;
x_9_8 -y_8<=0;
x_9_9 -y_9<=0;
x_9_10 -y_10<=0;
x_9_11 -y_11<=0;
x_9_12 -y_12<=0;
x_10_1 -y_1<=0;
x_10_2 -y_2<=0;
x_10_3 -y_3<=0;
x_10_4 -y_4<=0;
x_10_5 -y_5<=0;
x_10_6 -y_6<=0;
x_10_7 -y_7<=0;
x_10_8 -y_8<=0;
x_10_9 -y_9<=0;
x_10_10 -y_10<=0;
x_10_11 -y_11<=0;
x_10_12 -y_12<=0;
x_11_1 -y_1<=0;
x_11_2 -y_2<=0;
x_11_3 -y_3<=0;
x_11_4 -y_4<=0;
x_11_5 -y_5<=0;
x_11_6 -y_6<=0;
x_11_7 -y_7<=0;
x_11_8 -y_8<=0;
x_11_9 -y_9<=0;
x_11_10 -y_10<=0;
x_11_11 -y_11<=0;
x_11_12 -y_12<=0;
x_12_1 -y_1<=0;
x_12_2 -y_2<=0;
x_12_3 -y_3<=0;
x_12_4 -y_4<=0;
x_12_5 -y_5<=0;
x_12_6 -y_6<=0;
x_12_7 -y_7<=0;
x_12_8 -y_8<=0;
x_12_9 -y_9<=0;
x_12_10 -y_10<=0;
x_12_11 -y_11<=0;
x_12_12 -y_12<=0;
x_1_1 +x_1_1<=1;
x_1_2 +x_1_2<=1;
x_1_3 +x_1_3<=1;
x_1_4 +x_1_4<=1;
x_1_5 +x_1_5<=1;
x_1_6 +x_1_6<=1;
x_1_7 +x_1_7<=1;
x_1_8 +x_1_8<=1;
x_1_9 +x_1_9<=1;
x_1_10 +x_1_10<=1;
x_1_11 +x_1_11<=1;
x_1_12 +x_1_12<=1;
x_1_1 +x_2_1<=1;
x_1_2 +x_2_2<=1;
x_1_3 +x_2_3<=1;
x_1_4 +x_2_4<=1;
x_1_5 +x_2_5<=1;
x_1_6 +x_2_6<=1;
x_1_7 +x_2_7<=1;
x_1_8 +x_2_8<=1;
x_1_9 +x_2_9<=1;
x_1_10 +x_2_10<=1;
x_1_11 +x_2_11<=1;
x_1_12 +x_2_12<=1;
x_1_1 +x_3_1<=1;
x_1_2 +x_3_2<=1;
x_1_3 +x_3_3<=1;
x_1_4 +x_3_4<=1;
x_1_5 +x_3_5<=1;
x_1_6 +x_3_6<=1;
x_1_7 +x_3_7<=1;
x_1_8 +x_3_8<=1;
x_1_9 +x_3_9<=1;
x_1_10 +x_3_10<=1;
x_1_11 +x_3_11<=1;
x_1_12 +x_3_12<=1;
x_1_1 +x_4_1<=1;
x_1_2 +x_4_2<=1;
x_1_3 +x_4_3<=1;
x_1_4 +x_4_4<=1;
x_1_5 +x_4_5<=1;
x_1_6 +x_4_6<=1;
x_1_7 +x_4_7<=1;
x_1_8 +x_4_8<=1;
x_1_9 +x_4_9<=1;
x_1_10 +x_4_10<=1;
x_1_11 +x_4_11<=1;
x_1_12 +x_4_12<=1;
x_1_1 +x_5_1<=1;
x_1_2 +x_5_2<=1;
x_1_3 +x_5_3<=1;
x_1_4 +x_5_4<=1;
x_1_5 +x_5_5<=1;
x_1_6 +x_5_6<=1;
x_1_7 +x_5_7<=1;
x_1_8 +x_5_8<=1;
x_1_9 +x_5_9<=1;
x_1_10 +x_5_10<=1;
x_1_11 +x_5_11<=1;
x_1_12 +x_5_12<=1;
x_1_1 +x_6_1<=1;
x_1_2 +x_6_2<=1;
x_1_3 +x_6_3<=1;
x_1_4 +x_6_4<=1;
x_1_5 +x_6_5<=1;
x_1_6 +x_6_6<=1;
x_1_7 +x_6_7<=1;
x_1_8 +x_6_8<=1;
x_1_9 +x_6_9<=1;
x_1_10 +x_6_10<=1;
x_1_11 +x_6_11<=1;
x_1_12 +x_6_12<=1;
x_1_1 +x_7_1<=1;
x_1_2 +x_7_2<=1;
x_1_3 +x_7_3<=1;
x_1_4 +x_7_4<=1;
x_1_5 +x_7_5<=1;
x_1_6 +x_7_6<=1;
x_1_7 +x_7_7<=1;
x_1_8 +x_7_8<=1;
x_1_9 +x_7_9<=1;
x_1_10 +x_7_10<=1;
x_1_11 +x_7_11<=1;
x_1_12 +x_7_12<=1;
x_1_1 +x_8_1<=1;
x_1_2 +x_8_2<=1;
x_1_3 +x_8_3<=1;
x_1_4 +x_8_4<=1;
x_1_5 +x_8_5<=1;
x_1_6 +x_8_6<=1;
x_1_7 +x_8_7<=1;
x_1_8 +x_8_8<=1;
x_1_9 +x_8_9<=1;
x_1_10 +x_8_10<=1;
x_1_11 +x_8_11<=1;
x_1_12 +x_8_12<=1;
x_1_1 +x_9_1<=1;
x_1_2 +x_9_2<=1;
x_1_3 +x_9_3<=1;
x_1_4 +x_9_4<=1;
x_1_5 +x_9_5<=1;
x_1_6 +x_9_6<=1;
x_1_7 +x_9_7<=1;
x_1_8 +x_9_8<=1;
x_1_9 +x_9_9<=1;
x_1_10 +x_9_10<=1;
x_1_11 +x_9_11<=1;
x_1_12 +x_9_12<=1;
x_1_1 +x_10_1<=1;
x_1_2 +x_10_2<=1;
x_1_3 +x_10_3<=1;
x_1_4 +x_10_4<=1;
x_1_5 +x_10_5<=1;
x_1_6 +x_10_6<=1;
x_1_7 +x_10_7<=1;
x_1_8 +x_10_8<=1;
x_1_9 +x_10_9<=1;
x_1_10 +x_10_10<=1;
x_1_11 +x_10_11<=1;
x_1_12 +x_10_12<=1;
x_1_1 +x_11_1<=1;
x_1_2 +x_11_2<=1;
x_1_3 +x_11_3<=1;
x_1_4 +x_11_4<=1;
x_1_5 +x_11_5<=1;
x_1_6 +x_11_6<=1;
x_1_7 +x_11_7<=1;
x_1_8 +x_11_8<=1;
x_1_9 +x_11_9<=1;
x_1_10 +x_11_10<=1;
x_1_11 +x_11_11<=1;
x_1_12 +x_11_12<=1;
x_1_1 +x_12_1<=1;
x_1_2 +x_12_2<=1;
x_1_3 +x_12_3<=1;
x_1_4 +x_12_4<=1;
x_1_5 +x_12_5<=1;
x_1_6 +x_12_6<=1;
x_1_7 +x_12_7<=1;
x_1_8 +x_12_8<=1;
x_1_9 +x_12_9<=1;
x_1_10 +x_12_10<=1;
x_1_11 +x_12_11<=1;
x_1_12 +x_12_12<=1;
x_2_1 +x_3_1<=1;
x_2_2 +x_3_2<=1;
x_2_3 +x_3_3<=1;
x_2_4 +x_3_4<=1;
x_2_5 +x_3_5<=1;
x_2_6 +x_3_6<=1;
x_2_7 +x_3_7<=1;
x_2_8 +x_3_8<=1;
x_2_9 +x_3_9<=1;
x_2_10 +x_3_10<=1;
x_2_11 +x_3_11<=1;
x_2_12 +x_3_12<=1;
x_2_1 +x_7_1<=1;
x_2_2 +x_7_2<=1;
x_2_3 +x_7_3<=1;
x_2_4 +x_7_4<=1;
x_2_5 +x_7_5<=1;
x_2_6 +x_7_6<=1;
x_2_7 +x_7_7<=1;
x_2_8 +x_7_8<=1;
x_2_9 +x_7_9<=1;
x_2_10 +x_7_10<=1;
x_2_11 +x_7_11<=1;
x_2_12 +x_7_12<=1;
x_2_1 +x_9_1<=1;
x_2_2 +x_9_2<=1;
x_2_3 +x_9_3<=1;
x_2_4 +x_9_4<=1;
x_2_5 +x_9_5<=1;
x_2_6 +x_9_6<=1;
x_2_7 +x_9_7<=1;
x_2_8 +x_9_8<=1;
x_2_9 +x_9_9<=1;
x_2_10 +x_9_10<=1;
x_2_11 +x_9_11<=1;
x_2_12 +x_9_12<=1;
x_2_1 +x_11_1<=1;
x_2_2 +x_11_2<=1;
x_2_3 +x_11_3<=1;
x_2_4 +x_11_4<=1;
x_2_5 +x_11_5<=1;
x_2_6 +x_11_6<=1;
x_2_7 +x_11_7<=1;
x_2_8 +x_11_8<=1;
x_2_9 +x_11_9<=1;
x_2_10 +x_11_10<=1;
x_2_11 +x_11_11<=1;
x_2_12 +x_11_12<=1;
x_3_1 +x_2_1<=1;
x_3_2 +x_2_2<=1;
x_3_3 +x_2_3<=1;
x_3_4 +x_2_4<=1;
x_3_5 +x_2_5<=1;
x_3_6 +x_2_6<=1;
x_3_7 +x_2_7<=1;
x_3_8 +x_2_8<=1;
x_3_9 +x_2_9<=1;
x_3_10 +x_2_10<=1;
x_3_11 +x_2_11<=1;
x_3_12 +x_2_12<=1;
x_3_1 +x_4_1<=1;
x_3_2 +x_4_2<=1;
x_3_3 +x_4_3<=1;
x_3_4 +x_4_4<=1;
x_3_5 +x_4_5<=1;
x_3_6 +x_4_6<=1;
x_3_7 +x_4_7<=1;
x_3_8 +x_4_8<=1;
x_3_9 +x_4_9<=1;
x_3_10 +x_4_10<=1;
x_3_11 +x_4_11<=1;
x_3_12 +x_4_12<=1;
x_3_1 +x_5_1<=1;
x_3_2 +x_5_2<=1;
x_3_3 +x_5_3<=1;
x_3_4 +x_5_4<=1;
x_3_5 +x_5_5<=1;
x_3_6 +x_5_6<=1;
x_3_7 +x_5_7<=1;
x_3_8 +x_5_8<=1;
x_3_9 +x_5_9<=1;
x_3_10 +x_5_10<=1;
x_3_11 +x_5_11<=1;
x_3_12 +x_5_12<=1;
x_3_1 +x_6_1<=1;
x_3_2 +x_6_2<=1;
x_3_3 +x_6_3<=1;
x_3_4 +x_6_4<=1;
x_3_5 +x_6_5<=1;
x_3_6 +x_6_6<=1;
x_3_7 +x_6_7<=1;
x_3_8 +x_6_8<=1;
x_3_9 +x_6_9<=1;
x_3_10 +x_6_10<=1;
x_3_11 +x_6_11<=1;
x_3_12 +x_6_12<=1;
x_3_1 +x_7_1<=1;
x_3_2 +x_7_2<=1;
x_3_3 +x_7_3<=1;
x_3_4 +x_7_4<=1;
x_3_5 +x_7_5<=1;
x_3_6 +x_7_6<=1;
x_3_7 +x_7_7<=1;
x_3_8 +x_7_8<=1;
x_3_9 +x_7_9<=1;
x_3_10 +x_7_10<=1;
x_3_11 +x_7_11<=1;
x_3_12 +x_7_12<=1;
x_3_1 +x_8_1<=1;
x_3_2 +x_8_2<=1;
x_3_3 +x_8_3<=1;
x_3_4 +x_8_4<=1;
x_3_5 +x_8_5<=1;
x_3_6 +x_8_6<=1;
x_3_7 +x_8_7<=1;
x_3_8 +x_8_8<=1;
x_3_9 +x_8_9<=1;
x_3_10 +x_8_10<=1;
x_3_11 +x_8_11<=1;
x_3_12 +x_8_12<=1;
x_3_1 +x_9_1<=1;
x_3_2 +x_9_2<=1;
x_3_3 +x_9_3<=1;
x_3_4 +x_9_4<=1;
x_3_5 +x_9_5<=1;
x_3_6 +x_9_6<=1;
x_3_7 +x_9_7<=1;
x_3_8 +x_9_8<=1;
x_3_9 +x_9_9<=1;
x_3_10 +x_9_10<=1;
x_3_11 +x_9_11<=1;
x_3_12 +x_9_12<=1;
x_3_1 +x_10_1<=1;
x_3_2 +x_10_2<=1;
x_3_3 +x_10_3<=1;
x_3_4 +x_10_4<=1;
x_3_5 +x_10_5<=1;
x_3_6 +x_10_6<=1;
x_3_7 +x_10_7<=1;
x_3_8 +x_10_8<=1;
x_3_9 +x_10_9<=1;
x_3_10 +x_10_10<=1;
x_3_11 +x_10_11<=1;
x_3_12 +x_10_12<=1;
x_3_1 +x_11_1<=1;
x_3_2 +x_11_2<=1;
x_3_3 +x_11_3<=1;
x_3_4 +x_11_4<=1;
x_3_5 +x_11_5<=1;
x_3_6 +x_11_6<=1;
x_3_7 +x_11_7<=1;
x_3_8 +x_11_8<=1;
x_3_9 +x_11_9<=1;
x_3_10 +x_11_10<=1;
x_3_11 +x_11_11<=1;
x_3_12 +x_11_12<=1;
x_4_1 +x_1_1<=1;
x_4_2 +x_1_2<=1;
x_4_3 +x_1_3<=1;
x_4_4 +x_1_4<=1;
x_4_5 +x_1_5<=1;
x_4_6 +x_1_6<=1;
x_4_7 +x_1_7<=1;
x_4_8 +x_1_8<=1;
x_4_9 +x_1_9<=1;
x_4_10 +x_1_10<=1;
x_4_11 +x_1_11<=1;
x_4_12 +x_1_12<=1;
x_4_1 +x_3_1<=1;
x_4_2 +x_3_2<=1;
x_4_3 +x_3_3<=1;
x_4_4 +x_3_4<=1;
x_4_5 +x_3_5<=1;
x_4_6 +x_3_6<=1;
x_4_7 +x_3_7<=1;
x_4_8 +x_3_8<=1;
x_4_9 +x_3_9<=1;
x_4_10 +x_3_10<=1;
x_4_11 +x_3_11<=1;
x_4_12 +x_3_12<=1;
x_4_1 +x_7_1<=1;
x_4_2 +x_7_2<=1;
x_4_3 +x_7_3<=1;
x_4_4 +x_7_4<=1;
x_4_5 +x_7_5<=1;
x_4_6 +x_7_6<=1;
x_4_7 +x_7_7<=1;
x_4_8 +x_7_8<=1;
x_4_9 +x_7_9<=1;
x_4_10 +x_7_10<=1;
x_4_11 +x_7_11<=1;
x_4_12 +x_7_12<=1;
x_4_1 +x_9_1<=1;
x_4_2 +x_9_2<=1;
x_4_3 +x_9_3<=1;
x_4_4 +x_9_4<=1;
x_4_5 +x_9_5<=1;
x_4_6 +x_9_6<=1;
x_4_7 +x_9_7<=1;
x_4_8 +x_9_8<=1;
x_4_9 +x_9_9<=1;
x_4_10 +x_9_10<=1;
x_4_11 +x_9_11<=1;
x_4_12 +x_9_12<=1;
x_4_1 +x_11_1<=1;
x_4_2 +x_11_2<=1;
x_4_3 +x_11_3<=1;
x_4_4 +x_11_4<=1;
x_4_5 +x_11_5<=1;
x_4_6 +x_11_6<=1;
x_4_7 +x_11_7<=1;
x_4_8 +x_11_8<=1;
x_4_9 +x_11_9<=1;
x_4_10 +x_11_10<=1;
x_4_11 +x_11_11<=1;
x_4_12 +x_11_12<=1;
x_5_1 +x_1_1<=1;
x_5_2 +x_1_2<=1;
x_5_3 +x_1_3<=1;
x_5_4 +x_1_4<=1;
x_5_5 +x_1_5<=1;
x_5_6 +x_1_6<=1;
x_5_7 +x_1_7<=1;
x_5_8 +x_1_8<=1;
x_5_9 +x_1_9<=1;
x_5_10 +x_1_10<=1;
x_5_11 +x_1_11<=1;
x_5_12 +x_1_12<=1;
x_5_1 +x_2_1<=1;
x_5_2 +x_2_2<=1;
x_5_3 +x_2_3<=1;
x_5_4 +x_2_4<=1;
x_5_5 +x_2_5<=1;
x_5_6 +x_2_6<=1;
x_5_7 +x_2_7<=1;
x_5_8 +x_2_8<=1;
x_5_9 +x_2_9<=1;
x_5_10 +x_2_10<=1;
x_5_11 +x_2_11<=1;
x_5_12 +x_2_12<=1;
x_5_1 +x_5_1<=1;
x_5_2 +x_5_2<=1;
x_5_3 +x_5_3<=1;
x_5_4 +x_5_4<=1;
x_5_5 +x_5_5<=1;
x_5_6 +x_5_6<=1;
x_5_7 +x_5_7<=1;
x_5_8 +x_5_8<=1;
x_5_9 +x_5_9<=1;
x_5_10 +x_5_10<=1;
x_5_11 +x_5_11<=1;
x_5_12 +x_5_12<=1;
x_5_1 +x_6_1<=1;
x_5_2 +x_6_2<=1;
x_5_3 +x_6_3<=1;
x_5_4 +x_6_4<=1;
x_5_5 +x_6_5<=1;
x_5_6 +x_6_6<=1;
x_5_7 +x_6_7<=1;
x_5_8 +x_6_8<=1;
x_5_9 +x_6_9<=1;
x_5_10 +x_6_10<=1;
x_5_11 +x_6_11<=1;
x_5_12 +x_6_12<=1;
x_5_1 +x_7_1<=1;
x_5_2 +x_7_2<=1;
x_5_3 +x_7_3<=1;
x_5_4 +x_7_4<=1;
x_5_5 +x_7_5<=1;
x_5_6 +x_7_6<=1;
x_5_7 +x_7_7<=1;
x_5_8 +x_7_8<=1;
x_5_9 +x_7_9<=1;
x_5_10 +x_7_10<=1;
x_5_11 +x_7_11<=1;
x_5_12 +x_7_12<=1;
x_5_1 +x_9_1<=1;
x_5_2 +x_9_2<=1;
x_5_3 +x_9_3<=1;
x_5_4 +x_9_4<=1;
x_5_5 +x_9_5<=1;
x_5_6 +x_9_6<=1;
x_5_7 +x_9_7<=1;
x_5_8 +x_9_8<=1;
x_5_9 +x_9_9<=1;
x_5_10 +x_9_10<=1;
x_5_11 +x_9_11<=1;
x_5_12 +x_9_12<=1;
x_5_1 +x_11_1<=1;
x_5_2 +x_11_2<=1;
x_5_3 +x_11_3<=1;
x_5_4 +x_11_4<=1;
x_5_5 +x_11_5<=1;
x_5_6 +x_11_6<=1;
x_5_7 +x_11_7<=1;
x_5_8 +x_11_8<=1;
x_5_9 +x_11_9<=1;
x_5_10 +x_11_10<=1;
x_5_11 +x_11_11<=1;
x_5_12 +x_11_12<=1;
x_5_1 +x_12_1<=1;
x_5_2 +x_12_2<=1;
x_5_3 +x_12_3<=1;
x_5_4 +x_12_4<=1;
x_5_5 +x_12_5<=1;
x_5_6 +x_12_6<=1;
x_5_7 +x_12_7<=1;
x_5_8 +x_12_8<=1;
x_5_9 +x_12_9<=1;
x_5_10 +x_12_10<=1;
x_5_11 +x_12_11<=1;
x_5_12 +x_12_12<=1;
x_6_1 +x_5_1<=1;
x_6_2 +x_5_2<=1;
x_6_3 +x_5_3<=1;
x_6_4 +x_5_4<=1;
x_6_5 +x_5_5<=1;
x_6_6 +x_5_6<=1;
x_6_7 +x_5_7<=1;
x_6_8 +x_5_8<=1;
x_6_9 +x_5_9<=1;
x_6_10 +x_5_10<=1;
x_6_11 +x_5_11<=1;
x_6_12 +x_5_12<=1;
x_6_1 +x_11_1<=1;
x_6_2 +x_11_2<=1;
x_6_3 +x_11_3<=1;
x_6_4 +x_11_4<=1;
x_6_5 +x_11_5<=1;
x_6_6 +x_11_6<=1;
x_6_7 +x_11_7<=1;
x_6_8 +x_11_8<=1;
x_6_9 +x_11_9<=1;
x_6_10 +x_11_10<=1;
x_6_11 +x_11_11<=1;
x_6_12 +x_11_12<=1;
x_7_1 +x_2_1<=1;
x_7_2 +x_2_2<=1;
x_7_3 +x_2_3<=1;
x_7_4 +x_2_4<=1;
x_7_5 +x_2_5<=1;
x_7_6 +x_2_6<=1;
x_7_7 +x_2_7<=1;
x_7_8 +x_2_8<=1;
x_7_9 +x_2_9<=1;
x_7_10 +x_2_10<=1;
x_7_11 +x_2_11<=1;
x_7_12 +x_2_12<=1;
x_7_1 +x_5_1<=1;
x_7_2 +x_5_2<=1;
x_7_3 +x_5_3<=1;
x_7_4 +x_5_4<=1;
x_7_5 +x_5_5<=1;
x_7_6 +x_5_6<=1;
x_7_7 +x_5_7<=1;
x_7_8 +x_5_8<=1;
x_7_9 +x_5_9<=1;
x_7_10 +x_5_10<=1;
x_7_11 +x_5_11<=1;
x_7_12 +x_5_12<=1;
x_7_1 +x_9_1<=1;
x_7_2 +x_9_2<=1;
x_7_3 +x_9_3<=1;
x_7_4 +x_9_4<=1;
x_7_5 +x_9_5<=1;
x_7_6 +x_9_6<=1;
x_7_7 +x_9_7<=1;
x_7_8 +x_9_8<=1;
x_7_9 +x_9_9<=1;
x_7_10 +x_9_10<=1;
x_7_11 +x_9_11<=1;
x_7_12 +x_9_12<=1;
x_7_1 +x_10_1<=1;
x_7_2 +x_10_2<=1;
x_7_3 +x_10_3<=1;
x_7_4 +x_10_4<=1;
x_7_5 +x_10_5<=1;
x_7_6 +x_10_6<=1;
x_7_7 +x_10_7<=1;
x_7_8 +x_10_8<=1;
x_7_9 +x_10_9<=1;
x_7_10 +x_10_10<=1;
x_7_11 +x_10_11<=1;
x_7_12 +x_10_12<=1;
x_7_1 +x_11_1<=1;
x_7_2 +x_11_2<=1;
x_7_3 +x_11_3<=1;
x_7_4 +x_11_4<=1;
x_7_5 +x_11_5<=1;
x_7_6 +x_11_6<=1;
x_7_7 +x_11_7<=1;
x_7_8 +x_11_8<=1;
x_7_9 +x_11_9<=1;
x_7_10 +x_11_10<=1;
x_7_11 +x_11_11<=1;
x_7_12 +x_11_12<=1;
x_7_1 +x_12_1<=1;
x_7_2 +x_12_2<=1;
x_7_3 +x_12_3<=1;
x_7_4 +x_12_4<=1;
x_7_5 +x_12_5<=1;
x_7_6 +x_12_6<=1;
x_7_7 +x_12_7<=1;
x_7_8 +x_12_8<=1;
x_7_9 +x_12_9<=1;
x_7_10 +x_12_10<=1;
x_7_11 +x_12_11<=1;
x_7_12 +x_12_12<=1;
x_8_1 +x_1_1<=1;
x_8_2 +x_1_2<=1;
x_8_3 +x_1_3<=1;
x_8_4 +x_1_4<=1;
x_8_5 +x_1_5<=1;
x_8_6 +x_1_6<=1;
x_8_7 +x_1_7<=1;
x_8_8 +x_1_8<=1;
x_8_9 +x_1_9<=1;
x_8_10 +x_1_10<=1;
x_8_11 +x_1_11<=1;
x_8_12 +x_1_12<=1;
x_8_1 +x_3_1<=1;
x_8_2 +x_3_2<=1;
x_8_3 +x_3_3<=1;
x_8_4 +x_3_4<=1;
x_8_5 +x_3_5<=1;
x_8_6 +x_3_6<=1;
x_8_7 +x_3_7<=1;
x_8_8 +x_3_8<=1;
x_8_9 +x_3_9<=1;
x_8_10 +x_3_10<=1;
x_8_11 +x_3_11<=1;
x_8_12 +x_3_12<=1;
x_9_1 +x_1_1<=1;
x_9_2 +x_1_2<=1;
x_9_3 +x_1_3<=1;
x_9_4 +x_1_4<=1;
x_9_5 +x_1_5<=1;
x_9_6 +x_1_6<=1;
x_9_7 +x_1_7<=1;
x_9_8 +x_1_8<=1;
x_9_9 +x_1_9<=1;
x_9_10 +x_1_10<=1;
x_9_11 +x_1_11<=1;
x_9_12 +x_1_12<=1;
x_9_1 +x_4_1<=1;
x_9_2 +x_4_2<=1;
x_9_3 +x_4_3<=1;
x_9_4 +x_4_4<=1;
x_9_5 +x_4_5<=1;
x_9_6 +x_4_6<=1;
x_9_7 +x_4_7<=1;
x_9_8 +x_4_8<=1;
x_9_9 +x_4_9<=1;
x_9_10 +x_4_10<=1;
x_9_11 +x_4_11<=1;
x_9_12 +x_4_12<=1;
x_9_1 +x_5_1<=1;
x_9_2 +x_5_2<=1;
x_9_3 +x_5_3<=1;
x_9_4 +x_5_4<=1;
x_9_5 +x_5_5<=1;
x_9_6 +x_5_6<=1;
x_9_7 +x_5_7<=1;
x_9_8 +x_5_8<=1;
x_9_9 +x_5_9<=1;
x_9_10 +x_5_10<=1;
x_9_11 +x_5_11<=1;
x_9_12 +x_5_12<=1;
x_9_1 +x_6_1<=1;
x_9_2 +x_6_2<=1;
x_9_3 +x_6_3<=1;
x_9_4 +x_6_4<=1;
x_9_5 +x_6_5<=1;
x_9_6 +x_6_6<=1;
x_9_7 +x_6_7<=1;
x_9_8 +x_6_8<=1;
x_9_9 +x_6_9<=1;
x_9_10 +x_6_10<=1;
x_9_11 +x_6_11<=1;
x_9_12 +x_6_12<=1;
x_9_1 +x_10_1<=1;
x_9_2 +x_10_2<=1;
x_9_3 +x_10_3<=1;
x_9_4 +x_10_4<=1;
x_9_5 +x_10_5<=1;
x_9_6 +x_10_6<=1;
x_9_7 +x_10_7<=1;
x_9_8 +x_10_8<=1;
x_9_9 +x_10_9<=1;
x_9_10 +x_10_10<=1;
x_9_11 +x_10_11<=1;
x_9_12 +x_10_12<=1;
x_9_1 +x_11_1<=1;
x_9_2 +x_11_2<=1;
x_9_3 +x_11_3<=1;
x_9_4 +x_11_4<=1;
x_9_5 +x_11_5<=1;
x_9_6 +x_11_6<=1;
x_9_7 +x_11_7<=1;
x_9_8 +x_11_8<=1;
x_9_9 +x_11_9<=1;
x_9_10 +x_11_10<=1;
x_9_11 +x_11_11<=1;
x_9_12 +x_11_12<=1;
x_10_1 +x_3_1<=1;
x_10_2 +x_3_2<=1;
x_10_3 +x_3_3<=1;
x_10_4 +x_3_4<=1;
x_10_5 +x_3_5<=1;
x_10_6 +x_3_6<=1;
x_10_7 +x_3_7<=1;
x_10_8 +x_3_8<=1;
x_10_9 +x_3_9<=1;
x_10_10 +x_3_10<=1;
x_10_11 +x_3_11<=1;
x_10_12 +x_3_12<=1;
x_10_1 +x_5_1<=1;
x_10_2 +x_5_2<=1;
x_10_3 +x_5_3<=1;
x_10_4 +x_5_4<=1;
x_10_5 +x_5_5<=1;
x_10_6 +x_5_6<=1;
x_10_7 +x_5_7<=1;
x_10_8 +x_5_8<=1;
x_10_9 +x_5_9<=1;
x_10_10 +x_5_10<=1;
x_10_11 +x_5_11<=1;
x_10_12 +x_5_12<=1;
x_10_1 +x_7_1<=1;
x_10_2 +x_7_2<=1;
x_10_3 +x_7_3<=1;
x_10_4 +x_7_4<=1;
x_10_5 +x_7_5<=1;
x_10_6 +x_7_6<=1;
x_10_7 +x_7_7<=1;
x_10_8 +x_7_8<=1;
x_10_9 +x_7_9<=1;
x_10_10 +x_7_10<=1;
x_10_11 +x_7_11<=1;
x_10_12 +x_7_12<=1;
x_10_1 +x_9_1<=1;
x_10_2 +x_9_2<=1;
x_10_3 +x_9_3<=1;
x_10_4 +x_9_4<=1;
x_10_5 +x_9_5<=1;
x_10_6 +x_9_6<=1;
x_10_7 +x_9_7<=1;
x_10_8 +x_9_8<=1;
x_10_9 +x_9_9<=1;
x_10_10 +x_9_10<=1;
x_10_11 +x_9_11<=1;
x_10_12 +x_9_12<=1;
x_11_1 +x_2_1<=1;
x_11_2 +x_2_2<=1;
x_11_3 +x_2_3<=1;
x_11_4 +x_2_4<=1;
x_11_5 +x_2_5<=1;
x_11_6 +x_2_6<=1;
x_11_7 +x_2_7<=1;
x_11_8 +x_2_8<=1;
x_11_9 +x_2_9<=1;
x_11_10 +x_2_10<=1;
x_11_11 +x_2_11<=1;
x_11_12 +x_2_12<=1;
x_11_1 +x_3_1<=1;
x_11_2 +x_3_2<=1;
x_11_3 +x_3_3<=1;
x_11_4 +x_3_4<=1;
x_11_5 +x_3_5<=1;
x_11_6 +x_3_6<=1;
x_11_7 +x_3_7<=1;
x_11_8 +x_3_8<=1;
x_11_9 +x_3_9<=1;
x_11_10 +x_3_10<=1;
x_11_11 +x_3_11<=1;
x_11_12 +x_3_12<=1;
x_12_1 +x_1_1<=1;
x_12_2 +x_1_2<=1;
x_12_3 +x_1_3<=1;
x_12_4 +x_1_4<=1;
x_12_5 +x_1_5<=1;
x_12_6 +x_1_6<=1;
x_12_7 +x_1_7<=1;
x_12_8 +x_1_8<=1;
x_12_9 +x_1_9<=1;
x_12_10 +x_1_10<=1;
x_12_11 +x_1_11<=1;
x_12_12 +x_1_12<=1;
x_12_1 +x_5_1<=1;
x_12_2 +x_5_2<=1;
x_12_3 +x_5_3<=1;
x_12_4 +x_5_4<=1;
x_12_5 +x_5_5<=1;
x_12_6 +x_5_6<=1;
x_12_7 +x_5_7<=1;
x_12_8 +x_5_8<=1;
x_12_9 +x_5_9<=1;
x_12_10 +x_5_10<=1;
x_12_11 +x_5_11<=1;
x_12_12 +x_5_12<=1;
x_12_1 +x_11_1<=1;
x_12_2 +x_11_2<=1;
x_12_3 +x_11_3<=1;
x_12_4 +x_11_4<=1;
x_12_5 +x_11_5<=1;
x_12_6 +x_11_6<=1;
x_12_7 +x_11_7<=1;
x_12_8 +x_11_8<=1;
x_12_9 +x_11_9<=1;
x_12_10 +x_11_10<=1;
x_12_11 +x_11_11<=1;
x_12_12 +x_11_12<=1;
bin +y_1,+y_2,+y_3,+y_4,+y_5,+y_6,+y_7,+y_8,+y_9,+y_10,+y_11,+y_12,x_1_1x_1_2x_1_3x_1_4x_1_5x_1_6x_1_7x_1_8x_1_9x_1_10x_1_11x_1_12,x_2_1x_2_2x_2_3x_2_4x_2_5x_2_6x_2_7x_2_8x_2_9x_2_10x_2_11x_2_12,x_3_1x_3_2x_3_3x_3_4x_3_5x_3_6x_3_7x_3_8x_3_9x_3_10x_3_11x_3_12,x_4_1x_4_2x_4_3x_4_4x_4_5x_4_6x_4_7x_4_8x_4_9x_4_10x_4_11x_4_12,x_5_1x_5_2x_5_3x_5_4x_5_5x_5_6x_5_7x_5_8x_5_9x_5_10x_5_11x_5_12,x_6_1x_6_2x_6_3x_6_4x_6_5x_6_6x_6_7x_6_8x_6_9x_6_10x_6_11x_6_12,x_7_1x_7_2x_7_3x_7_4x_7_5x_7_6x_7_7x_7_8x_7_9x_7_10x_7_11x_7_12,x_8_1x_8_2x_8_3x_8_4x_8_5x_8_6x_8_7x_8_8x_8_9x_8_10x_8_11x_8_12,x_9_1x_9_2x_9_3x_9_4x_9_5x_9_6x_9_7x_9_8x_9_9x_9_10x_9_11x_9_12,x_10_1x_10_2x_10_3x_10_4x_10_5x_10_6x_10_7x_10_8x_10_9x_10_10x_10_11x_10_12,x_11_1x_11_2x_11_3x_11_4x_11_5x_11_6x_11_7x_11_8x_11_9x_11_10x_11_11x_11_12,x_12_1x_12_2x_12_3x_12_4x_12_5x_12_6x_12_7x_12_8x_12_9x_12_10x_12_11x_12_12;
