MATH381/lp3.out

Value of objective function: 5.00000000

Actual values of the variables:
y_1                             1
y_2                             1
y_3                             1
y_4                             1
y_5                             1
y_6                             0
y_7                             0
y_8                             0
y_9                             0
y_10                            0
y_11                            0
y_12                            0
x_1_1                           1
x_1_2                           0
x_1_3                           0
x_1_4                           0
x_1_5                           0
x_1_6                           0
x_1_7                           0
x_1_8                           0
x_1_9                           0
x_1_10                          0
x_1_11                          0
x_1_12                          0
x_2_1                           0
x_2_2                           1
x_2_3                           0
x_2_4                           0
x_2_5                           0
x_2_6                           0
x_2_7                           0
x_2_8                           0
x_2_9                           0
x_2_10                          0
x_2_11                          0
x_2_12                          0
x_3_1                           0
x_3_2                           0
x_3_3                           1
x_3_4                           0
x_3_5                           0
x_3_6                           0
x_3_7                           0
x_3_8                           0
x_3_9                           0
x_3_10                          0
x_3_11                          0
x_3_12                          0
x_4_1                           1
x_4_2                           0
x_4_3                           0
x_4_4                           0
x_4_5                           0
x_4_6                           0
x_4_7                           0
x_4_8                           0
x_4_9                           0
x_4_10                          0
x_4_11                          0
x_4_12                          0
x_5_1                           1
x_5_2                           0
x_5_3                           0
x_5_4                           0
x_5_5                           0
x_5_6                           0
x_5_7                           0
x_5_8                           0
x_5_9                           0
x_5_10                          0
x_5_11                          0
x_5_12                          0
x_6_1                           0
x_6_2                           1
x_6_3                           0
x_6_4                           0
x_6_5                           0
x_6_6                           0
x_6_7                           0
x_6_8                           0
x_6_9                           0
x_6_10                          0
x_6_11                          0
x_6_12                          0
x_7_1                           0
x_7_2                           0
x_7_3                           0
x_7_4                           1
x_7_5                           0
x_7_6                           0
x_7_7                           0
x_7_8                           0
x_7_9                           0
x_7_10                          0
x_7_11                          0
x_7_12                          0
x_8_1                           0
x_8_2                           1
x_8_3                           0
x_8_4                           0
x_8_5                           0
x_8_6                           0
x_8_7                           0
x_8_8                           0
x_8_9                           0
x_8_10                          0
x_8_11                          0
x_8_12                          0
x_9_1                           0
x_9_2                           0
x_9_3                           0
x_9_4                           0
x_9_5                           1
x_9_6                           0
x_9_7                           0
x_9_8                           0
x_9_9                           0
x_9_10                          0
x_9_11                          0
x_9_12                          0
x_10_1                          0
x_10_2                          0
x_10_3                          1
x_10_4                          0
x_10_5                          0
x_10_6                          0
x_10_7                          0
x_10_8                          0
x_10_9                          0
x_10_10                         0
x_10_11                         0
x_10_12                         0
x_11_1                          0
x_11_2                          0
x_11_3                          0
x_11_4                          0
x_11_5                          1
x_11_6                          0
x_11_7                          0
x_11_8                          0
x_11_9                          0
x_11_10                         0
x_11_11                         0
x_11_12                         0
x_12_1                          0
x_12_2                          1
x_12_3                          0
x_12_4                          0
x_12_5                          0
x_12_6                          0
x_12_7                          0
x_12_8                          0
x_12_9                          0
x_12_10                         0
x_12_11                         0
x_12_12                         0
